
Gurobi 7.5.2 (linux64) logging started Sat Jul  7 16:15:37 2018

Changed value of parameter LogFile to result/ilp/simNo_7-n_100-m_40-s_7-minVAF_0.05-cov_10000-k_1-fn_0.25-fp_0.0001-na_0.15.ILP.gurobiSolverLog
   Prev: gurobi.log  Default: 
Changed value of parameter TimeLimit to 86400.0
   Prev: 1e+100  Min: 0.0  Max: 1e+100  Default: 1e+100
Optimize a model with 639293 rows, 10765 columns and 1940420 nonzeros
Variable types: 0 continuous, 10765 integer (10765 binary)
Coefficient statistics:
  Matrix range     [2e-05, 4e+00]
  Objective range  [1e+00, 3e+01]
  Bounds range     [1e+00, 1e+00]
  RHS range        [8e-02, 2e+00]
Found heuristic solution: objective -4651.310539
Presolve removed 137034 rows and 1100 columns (presolve time = 6s) ...
Presolve removed 138839 rows and 1100 columns (presolve time = 10s) ...
Presolve removed 139493 rows and 1100 columns (presolve time = 18s) ...
Presolve removed 204893 rows and 1754 columns (presolve time = 20s) ...
Presolve removed 204893 rows and 1754 columns (presolve time = 26s) ...
Presolve removed 204893 rows and 1754 columns
Presolve time: 25.69s
Presolved: 434400 rows, 9011 columns, 1305787 nonzeros
Variable types: 0 continuous, 9011 integer (9011 binary)
Presolved: 9011 rows, 443411 columns, 1314798 nonzeros

Presolve removed 9011 rows and 443411 columns

Root simplex log...

Iteration    Objective       Primal Inf.    Dual Inf.      Time
       0    2.5894238e+01   0.000000e+00   2.457200e+04     31s
    8220   -5.4766702e+01   0.000000e+00   0.000000e+00     33s
    8220   -5.4766702e+01   0.000000e+00   0.000000e+00     34s

Root relaxation: objective -5.476670e+01, 8220 iterations, 6.35 seconds
Total elapsed time = 51.24s
Total elapsed time = 60.11s

    Nodes    |    Current Node    |     Objective Bounds      |     Work
 Expl Unexpl |  Obj  Depth IntInf | Incumbent    BestBd   Gap | It/Node Time

     0     0  -54.76670    0  467 -4651.3105  -54.76670  98.8%     -   70s
H    0     0                     -90.5238249  -54.76670  39.5%     -   75s
H    0     0                     -89.2761748  -54.76670  38.7%     -   76s
H    0     0                     -66.4777323  -54.76670  17.6%     -   77s
     0     0  -57.78108    0  468  -66.47773  -57.78108  13.1%     -   85s
     0     0  -59.92563    0  511  -66.47773  -59.92563  9.86%     -   98s
H    0     0                     -63.5323870  -59.92563  5.68%     -  105s
     0     0  -59.92563    0  514  -63.53239  -59.92563  5.68%     -  107s
     0     0  -59.92563    0  493  -63.53239  -59.92563  5.68%     -  140s
     0     0  -59.92563    0  456  -63.53239  -59.92563  5.68%     -  169s
     0     0  -59.92563    0  352  -63.53239  -59.92563  5.68%     -  170s
     0     0  -59.92563    0  374  -63.53239  -59.92563  5.68%     -  170s
     0     0  -60.51801    0  161  -63.53239  -60.51801  4.74%     -  172s
     0     0  -60.51801    0  454  -63.53239  -60.51801  4.74%     -  174s
     0     0  -60.51801    0  154  -63.53239  -60.51801  4.74%     -  175s
     0     0  -60.51801    0  154  -63.53239  -60.51801  4.74%     -  175s
     0     0  -60.51801    0  150  -63.53239  -60.51801  4.74%     -  176s
     0     0  -60.51801    0  152  -63.53239  -60.51801  4.74%     -  176s
     0     0  -60.78013    0  166  -63.53239  -60.78013  4.33%     -  177s
     0     0  -60.78013    0  167  -63.53239  -60.78013  4.33%     -  177s
     0     0  -60.85294    0  164  -63.53239  -60.85294  4.22%     -  177s
     0     0  -60.85294    0  445  -63.53239  -60.85294  4.22%     -  179s
     0     0  -60.85294    0  165  -63.53239  -60.85294  4.22%     -  179s
H    0     0                     -62.5275934  -60.85294  2.68%     -  179s
     0     0  -60.85294    0  165  -62.52759  -60.85294  2.68%     -  179s
     0     0  -60.85294    0  165  -62.52759  -60.85294  2.68%     -  179s
     0     0  -61.02040    0  159  -62.52759  -61.02040  2.41%     -  179s
     0     0  -61.18787    0  164  -62.52759  -61.18787  2.14%     -  180s
     0     0  -61.18787    0  164  -62.52759  -61.18787  2.14%     -  180s
     0     0  -61.22136    0  167  -62.52759  -61.22136  2.09%     -  180s
     0     0  -61.25485    0  169  -62.52759  -61.25485  2.04%     -  180s
     0     0  -61.25485    0  169  -62.52759  -61.25485  2.04%     -  180s
     0     0  -61.64101    0  168  -62.52759  -61.64101  1.42%     -  180s
     0     0  -61.64101    0  169  -62.52759  -61.64101  1.42%     -  180s
     0     0  -61.64101    0  168  -62.52759  -61.64101  1.42%     -  180s
     0     0  -61.64101    0  157  -62.52759  -61.64101  1.42%     -  181s
     0     0  -61.64101    0  163  -62.52759  -61.64101  1.42%     -  181s
     0     0  -61.64101    0  167  -62.52759  -61.64101  1.42%     -  181s
     0     0  -61.64101    0  147  -62.52759  -61.64101  1.42%     -  181s
     0     0  -61.64101    0  163  -62.52759  -61.64101  1.42%     -  181s
     0     0  -61.64101    0  163  -62.52759  -61.64101  1.42%     -  181s
     0     0  -61.64101    0  164  -62.52759  -61.64101  1.42%     -  181s
     0     0  -61.69027    0  162  -62.52759  -61.69027  1.34%     -  181s
     0     0  -61.69027    0  163  -62.52759  -61.69027  1.34%     -  181s
     0     0  -62.02520    0  164  -62.52759  -62.02520  0.80%     -  181s
     0     0  -62.02520    0  161  -62.52759  -62.02520  0.80%     -  181s
     0     0  -62.02520    0  162  -62.52759  -62.02520  0.80%     -  181s
     0     0  -62.02520    0  152  -62.52759  -62.02520  0.80%     -  181s
     0     0  -62.02520    0  130  -62.52759  -62.02520  0.80%     -  181s
     0     0  -62.02520    0  138  -62.52759  -62.02520  0.80%     -  181s
     0     0     cutoff    0       -62.52759  -62.52759  0.00%     -  181s

Cutting planes:
  Gomory: 4
  Implied bound: 1
  MIR: 1
  Zero half: 30

Explored 1 nodes (37336 simplex iterations) in 181.74 seconds
Thread count was 1 (of 80 available processors)

Solution count 10: -62.5276 -62.5276 -63.5324 ... -4651.31

Optimal solution found (tolerance 1.00e-04)
Best objective -6.252759343313e+01, best bound -6.252759343313e+01, gap 0.0000%
